c Reduced graph for r04 generated by Cyril Grelier
p edge 151 1406
e 1 2
e 1 3
e 1 4
e 1 6
e 1 7
e 1 8
e 1 9
e 1 11
e 1 17
e 1 18
e 1 19
e 1 20
e 1 23
e 1 26
e 1 29
e 1 32
e 1 40
e 1 41
e 1 42
e 1 43
e 1 49
e 1 97
e 1 103
e 2 3
e 2 6
e 2 7
e 2 8
e 2 10
e 2 12
e 2 17
e 2 18
e 2 19
e 2 20
e 2 24
e 2 27
e 2 30
e 2 40
e 2 41
e 2 42
e 2 44
e 2 50
e 2 65
e 2 98
e 2 104
e 2 106
e 3 5
e 3 6
e 3 7
e 3 8
e 3 13
e 3 17
e 3 18
e 3 19
e 3 20
e 3 25
e 3 28
e 3 31
e 3 33
e 3 40
e 3 41
e 3 42
e 3 45
e 3 51
e 3 66
e 3 84
e 3 105
e 4 5
e 4 9
e 4 11
e 4 14
e 4 15
e 4 16
e 4 23
e 4 26
e 4 29
e 4 32
e 4 36
e 4 37
e 4 38
e 4 39
e 4 43
e 4 49
e 4 67
e 4 68
e 4 97
e 4 103
e 4 116
e 5 13
e 5 14
e 5 15
e 5 16
e 5 25
e 5 28
e 5 31
e 5 33
e 5 36
e 5 37
e 5 38
e 5 39
e 5 45
e 5 51
e 5 66
e 5 67
e 5 68
e 5 84
e 5 105
e 5 116
e 6 7
e 6 8
e 6 14
e 6 17
e 6 18
e 6 19
e 6 20
e 6 21
e 6 34
e 6 40
e 6 41
e 6 42
e 6 54
e 6 58
e 6 69
e 6 73
e 6 86
e 6 124
e 6 129
e 7 8
e 7 15
e 7 17
e 7 18
e 7 19
e 7 20
e 7 35
e 7 40
e 7 41
e 7 42
e 7 52
e 7 55
e 7 57
e 7 59
e 7 87
e 7 110
e 7 125
e 7 130
e 8 16
e 8 17
e 8 18
e 8 19
e 8 20
e 8 22
e 8 40
e 8 41
e 8 42
e 8 53
e 8 56
e 8 60
e 8 74
e 8 88
e 8 111
e 8 126
e 8 131
e 9 10
e 9 11
e 9 21
e 9 22
e 9 23
e 9 26
e 9 29
e 9 32
e 9 43
e 9 46
e 9 47
e 9 48
e 9 49
e 9 70
e 9 71
e 9 72
e 9 90
e 9 97
e 9 103
e 9 120
e 10 12
e 10 21
e 10 22
e 10 24
e 10 27
e 10 30
e 10 44
e 10 46
e 10 47
e 10 48
e 10 50
e 10 65
e 10 70
e 10 71
e 10 72
e 10 90
e 10 98
e 10 104
e 10 106
e 10 120
e 11 12
e 11 13
e 11 23
e 11 26
e 11 29
e 11 32
e 11 34
e 11 35
e 11 43
e 11 49
e 11 61
e 11 62
e 11 63
e 11 64
e 11 85
e 11 97
e 11 103
e 11 112
e 12 13
e 12 24
e 12 27
e 12 30
e 12 34
e 12 35
e 12 44
e 12 50
e 12 61
e 12 62
e 12 63
e 12 64
e 12 65
e 12 85
e 12 98
e 12 104
e 12 106
e 12 112
e 13 25
e 13 28
e 13 31
e 13 33
e 13 34
e 13 35
e 13 45
e 13 51
e 13 61
e 13 62
e 13 63
e 13 64
e 13 66
e 13 84
e 13 85
e 13 105
e 13 112
e 14 15
e 14 16
e 14 21
e 14 34
e 14 36
e 14 37
e 14 38
e 14 39
e 14 54
e 14 58
e 14 67
e 14 68
e 14 69
e 14 73
e 14 86
e 14 116
e 14 124
e 14 129
e 15 16
e 15 35
e 15 36
e 15 37
e 15 38
e 15 39
e 15 52
e 15 55
e 15 57
e 15 59
e 15 67
e 15 68
e 15 87
e 15 110
e 15 116
e 15 125
e 15 130
e 16 22
e 16 36
e 16 37
e 16 38
e 16 39
e 16 53
e 16 56
e 16 60
e 16 67
e 16 68
e 16 74
e 16 88
e 16 111
e 16 116
e 16 126
e 16 131
e 17 18
e 17 19
e 17 20
e 17 36
e 17 40
e 17 41
e 17 42
e 17 46
e 17 61
e 17 77
e 17 89
e 17 91
e 17 113
e 17 139
e 17 141
e 18 19
e 18 20
e 18 37
e 18 40
e 18 41
e 18 42
e 18 47
e 18 62
e 18 75
e 18 79
e 18 82
e 18 92
e 18 114
e 18 132
e 19 20
e 19 38
e 19 40
e 19 41
e 19 42
e 19 48
e 19 63
e 19 80
e 19 83
e 19 133
e 19 136
e 19 140
e 19 142
e 20 39
e 20 40
e 20 41
e 20 42
e 20 64
e 20 76
e 20 78
e 20 81
e 20 93
e 20 115
e 20 134
e 20 137
e 21 22
e 21 34
e 21 46
e 21 47
e 21 48
e 21 54
e 21 58
e 21 69
e 21 70
e 21 71
e 21 72
e 21 73
e 21 86
e 21 90
e 21 120
e 21 124
e 21 129
e 22 46
e 22 47
e 22 48
e 22 53
e 22 56
e 22 60
e 22 70
e 22 71
e 22 72
e 22 74
e 22 88
e 22 90
e 22 111
e 22 120
e 22 126
e 22 131
e 23 24
e 23 25
e 23 26
e 23 29
e 23 32
e 23 43
e 23 49
e 23 52
e 23 53
e 23 75
e 23 76
e 23 94
e 23 95
e 23 96
e 23 97
e 23 103
e 23 123
e 24 25
e 24 27
e 24 30
e 24 44
e 24 50
e 24 52
e 24 53
e 24 65
e 24 75
e 24 76
e 24 94
e 24 95
e 24 96
e 24 98
e 24 104
e 24 106
e 24 123
e 25 28
e 25 31
e 25 33
e 25 45
e 25 51
e 25 52
e 25 53
e 25 66
e 25 75
e 25 76
e 25 84
e 25 94
e 25 95
e 25 96
e 25 105
e 25 123
e 26 27
e 26 28
e 26 29
e 26 32
e 26 43
e 26 49
e 26 54
e 26 55
e 26 56
e 26 77
e 26 78
e 26 97
e 26 99
e 26 100
e 26 103
e 26 127
e 27 28
e 27 30
e 27 44
e 27 50
e 27 54
e 27 55
e 27 56
e 27 65
e 27 77
e 27 78
e 27 98
e 27 99
e 27 100
e 27 104
e 27 106
e 27 127
e 28 31
e 28 33
e 28 45
e 28 51
e 28 54
e 28 55
e 28 56
e 28 66
e 28 77
e 28 78
e 28 84
e 28 99
e 28 100
e 28 105
e 28 127
e 29 30
e 29 31
e 29 32
e 29 43
e 29 49
e 29 57
e 29 79
e 29 80
e 29 81
e 29 97
e 29 101
e 29 102
e 29 103
e 29 128
e 29 138
e 30 31
e 30 44
e 30 50
e 30 57
e 30 65
e 30 79
e 30 80
e 30 81
e 30 98
e 30 101
e 30 102
e 30 104
e 30 106
e 30 128
e 30 138
e 31 33
e 31 45
e 31 51
e 31 57
e 31 66
e 31 79
e 31 80
e 31 81
e 31 84
e 31 101
e 31 102
e 31 105
e 31 128
e 31 138
e 32 33
e 32 43
e 32 49
e 32 58
e 32 59
e 32 60
e 32 82
e 32 83
e 32 97
e 32 103
e 32 107
e 32 108
e 32 109
e 33 45
e 33 51
e 33 58
e 33 59
e 33 60
e 33 66
e 33 82
e 33 83
e 33 84
e 33 105
e 33 107
e 33 108
e 33 109
e 34 35
e 34 54
e 34 58
e 34 61
e 34 62
e 34 63
e 34 64
e 34 69
e 34 73
e 34 85
e 34 86
e 34 112
e 34 124
e 34 129
e 35 52
e 35 55
e 35 57
e 35 59
e 35 61
e 35 62
e 35 63
e 35 64
e 35 85
e 35 87
e 35 110
e 35 112
e 35 125
e 35 130
e 36 37
e 36 38
e 36 39
e 36 46
e 36 61
e 36 67
e 36 68
e 36 77
e 36 89
e 36 91
e 36 113
e 36 116
e 36 139
e 36 141
e 37 38
e 37 39
e 37 47
e 37 62
e 37 67
e 37 68
e 37 75
e 37 79
e 37 82
e 37 92
e 37 114
e 37 116
e 37 132
e 38 39
e 38 48
e 38 63
e 38 67
e 38 68
e 38 80
e 38 83
e 38 116
e 38 133
e 38 136
e 38 140
e 38 142
e 39 64
e 39 67
e 39 68
e 39 76
e 39 78
e 39 81
e 39 93
e 39 115
e 39 116
e 39 134
e 39 137
e 40 41
e 40 42
e 40 67
e 40 70
e 40 94
e 40 101
e 40 107
e 40 117
e 40 121
e 40 144
e 41 42
e 41 71
e 41 95
e 41 99
e 41 102
e 41 108
e 41 118
e 41 122
e 41 145
e 42 68
e 42 72
e 42 85
e 42 96
e 42 100
e 42 109
e 42 119
e 42 146
e 43 44
e 43 45
e 43 49
e 43 69
e 43 89
e 43 97
e 43 103
e 43 117
e 43 118
e 43 119
e 43 135
e 43 143
e 44 45
e 44 50
e 44 65
e 44 69
e 44 89
e 44 98
e 44 104
e 44 106
e 44 117
e 44 118
e 44 119
e 44 135
e 44 143
e 45 51
e 45 66
e 45 69
e 45 84
e 45 89
e 45 105
e 45 117
e 45 118
e 45 119
e 45 135
e 45 143
e 46 47
e 46 48
e 46 61
e 46 70
e 46 71
e 46 72
e 46 77
e 46 89
e 46 90
e 46 91
e 46 113
e 46 120
e 46 139
e 46 141
e 47 48
e 47 62
e 47 70
e 47 71
e 47 72
e 47 75
e 47 79
e 47 82
e 47 90
e 47 92
e 47 114
e 47 120
e 47 132
e 48 63
e 48 70
e 48 71
e 48 72
e 48 80
e 48 83
e 48 90
e 48 120
e 48 133
e 48 136
e 48 140
e 48 142
e 49 50
e 49 51
e 49 73
e 49 74
e 49 91
e 49 92
e 49 93
e 49 97
e 49 103
e 49 121
e 49 122
e 50 51
e 50 65
e 50 73
e 50 74
e 50 91
e 50 92
e 50 93
e 50 98
e 50 104
e 50 106
e 50 121
e 50 122
e 51 66
e 51 73
e 51 74
e 51 84
e 51 91
e 51 92
e 51 93
e 51 105
e 51 121
e 51 122
e 52 53
e 52 55
e 52 57
e 52 59
e 52 75
e 52 76
e 52 87
e 52 94
e 52 95
e 52 96
e 52 110
e 52 123
e 52 125
e 52 130
e 53 56
e 53 60
e 53 74
e 53 75
e 53 76
e 53 88
e 53 94
e 53 95
e 53 96
e 53 111
e 53 123
e 53 126
e 53 131
e 54 55
e 54 56
e 54 58
e 54 69
e 54 73
e 54 77
e 54 78
e 54 86
e 54 99
e 54 100
e 54 124
e 54 127
e 54 129
e 55 56
e 55 57
e 55 59
e 55 77
e 55 78
e 55 87
e 55 99
e 55 100
e 55 110
e 55 125
e 55 127
e 55 130
e 56 60
e 56 74
e 56 77
e 56 78
e 56 88
e 56 99
e 56 100
e 56 111
e 56 126
e 56 127
e 56 131
e 57 59
e 57 79
e 57 80
e 57 81
e 57 87
e 57 101
e 57 102
e 57 110
e 57 125
e 57 128
e 57 130
e 57 138
e 58 59
e 58 60
e 58 69
e 58 73
e 58 82
e 58 83
e 58 86
e 58 107
e 58 108
e 58 109
e 58 124
e 58 129
e 59 60
e 59 82
e 59 83
e 59 87
e 59 107
e 59 108
e 59 109
e 59 110
e 59 125
e 59 130
e 60 74
e 60 82
e 60 83
e 60 88
e 60 107
e 60 108
e 60 109
e 60 111
e 60 126
e 60 131
e 61 62
e 61 63
e 61 64
e 61 77
e 61 85
e 61 89
e 61 91
e 61 112
e 61 113
e 61 139
e 61 141
e 62 63
e 62 64
e 62 75
e 62 79
e 62 82
e 62 85
e 62 92
e 62 112
e 62 114
e 62 132
e 63 64
e 63 80
e 63 83
e 63 85
e 63 112
e 63 133
e 63 136
e 63 140
e 63 142
e 64 76
e 64 78
e 64 81
e 64 85
e 64 93
e 64 112
e 64 115
e 64 134
e 64 137
e 65 66
e 65 86
e 65 87
e 65 88
e 65 98
e 65 104
e 65 106
e 65 113
e 65 114
e 65 115
e 65 148
e 66 84
e 66 86
e 66 87
e 66 88
e 66 105
e 66 113
e 66 114
e 66 115
e 66 148
e 67 68
e 67 70
e 67 94
e 67 101
e 67 107
e 67 116
e 67 117
e 67 121
e 67 144
e 68 72
e 68 85
e 68 96
e 68 100
e 68 109
e 68 116
e 68 119
e 68 146
e 69 73
e 69 86
e 69 89
e 69 117
e 69 118
e 69 119
e 69 124
e 69 129
e 69 135
e 69 143
e 70 71
e 70 72
e 70 90
e 70 94
e 70 101
e 70 107
e 70 117
e 70 120
e 70 121
e 70 144
e 71 72
e 71 90
e 71 95
e 71 99
e 71 102
e 71 108
e 71 118
e 71 120
e 71 122
e 71 145
e 72 85
e 72 90
e 72 96
e 72 100
e 72 109
e 72 119
e 72 120
e 72 146
e 73 74
e 73 86
e 73 91
e 73 92
e 73 93
e 73 121
e 73 122
e 73 124
e 73 129
e 74 88
e 74 91
e 74 92
e 74 93
e 74 111
e 74 121
e 74 122
e 74 126
e 74 131
e 75 76
e 75 79
e 75 82
e 75 92
e 75 94
e 75 95
e 75 96
e 75 114
e 75 123
e 75 132
e 76 78
e 76 81
e 76 93
e 76 94
e 76 95
e 76 96
e 76 115
e 76 123
e 76 134
e 76 137
e 77 78
e 77 89
e 77 91
e 77 99
e 77 100
e 77 113
e 77 127
e 77 139
e 77 141
e 78 81
e 78 93
e 78 99
e 78 100
e 78 115
e 78 127
e 78 134
e 78 137
e 79 80
e 79 81
e 79 82
e 79 92
e 79 101
e 79 102
e 79 114
e 79 128
e 79 132
e 79 138
e 80 81
e 80 83
e 80 101
e 80 102
e 80 128
e 80 133
e 80 136
e 80 138
e 80 140
e 80 142
e 81 93
e 81 101
e 81 102
e 81 115
e 81 128
e 81 134
e 81 137
e 81 138
e 82 83
e 82 92
e 82 107
e 82 108
e 82 109
e 82 114
e 82 132
e 83 107
e 83 108
e 83 109
e 83 133
e 83 136
e 83 140
e 83 142
e 84 105
e 84 110
e 84 111
e 84 132
e 84 133
e 84 134
e 84 147
e 84 150
e 85 96
e 85 100
e 85 109
e 85 112
e 85 119
e 85 146
e 86 87
e 86 88
e 86 113
e 86 114
e 86 115
e 86 124
e 86 129
e 86 148
e 87 88
e 87 110
e 87 113
e 87 114
e 87 115
e 87 125
e 87 130
e 87 148
e 88 111
e 88 113
e 88 114
e 88 115
e 88 126
e 88 131
e 88 148
e 89 91
e 89 113
e 89 117
e 89 118
e 89 119
e 89 135
e 89 139
e 89 141
e 89 143
e 90 112
e 90 120
e 90 123
e 90 127
e 90 128
e 90 135
e 90 147
e 90 149
e 91 92
e 91 93
e 91 113
e 91 121
e 91 122
e 91 139
e 91 141
e 92 93
e 92 114
e 92 121
e 92 122
e 92 132
e 93 115
e 93 121
e 93 122
e 93 134
e 93 137
e 94 95
e 94 96
e 94 101
e 94 107
e 94 117
e 94 121
e 94 123
e 94 144
e 95 96
e 95 99
e 95 102
e 95 108
e 95 118
e 95 122
e 95 123
e 95 145
e 96 100
e 96 109
e 96 119
e 96 123
e 96 146
e 97 98
e 97 103
e 97 124
e 97 125
e 97 126
e 97 136
e 97 137
e 97 144
e 98 104
e 98 106
e 98 124
e 98 125
e 98 126
e 98 136
e 98 137
e 98 144
e 99 100
e 99 102
e 99 108
e 99 118
e 99 122
e 99 127
e 99 145
e 100 109
e 100 119
e 100 127
e 100 146
e 101 102
e 101 107
e 101 117
e 101 121
e 101 128
e 101 138
e 101 144
e 102 108
e 102 118
e 102 122
e 102 128
e 102 138
e 102 145
e 103 104
e 103 105
e 103 129
e 103 130
e 103 139
e 103 140
e 103 149
e 104 105
e 104 106
e 104 129
e 104 130
e 104 139
e 104 140
e 104 149
e 105 129
e 105 130
e 105 139
e 105 140
e 105 149
e 106 131
e 106 141
e 106 142
e 106 145
e 106 146
e 106 151
e 107 108
e 107 109
e 107 117
e 107 121
e 107 144
e 108 109
e 108 118
e 108 122
e 108 145
e 109 119
e 109 146
e 110 111
e 110 125
e 110 130
e 110 132
e 110 133
e 110 134
e 110 147
e 110 150
e 111 126
e 111 131
e 111 132
e 111 133
e 111 134
e 111 147
e 111 150
e 112 123
e 112 127
e 112 128
e 112 135
e 112 147
e 112 149
e 113 114
e 113 115
e 113 139
e 113 141
e 113 148
e 114 115
e 114 132
e 114 148
e 115 134
e 115 137
e 115 148
e 116 120
e 116 138
e 116 143
e 116 148
e 116 150
e 116 151
e 117 118
e 117 119
e 117 121
e 117 135
e 117 143
e 117 144
e 118 119
e 118 122
e 118 135
e 118 143
e 118 145
e 119 135
e 119 143
e 119 146
e 120 138
e 120 143
e 120 148
e 120 150
e 120 151
e 121 122
e 121 144
e 122 145
e 123 127
e 123 128
e 123 135
e 123 147
e 123 149
e 124 125
e 124 126
e 124 129
e 124 136
e 124 137
e 124 144
e 125 126
e 125 130
e 125 136
e 125 137
e 125 144
e 126 131
e 126 136
e 126 137
e 126 144
e 127 128
e 127 135
e 127 147
e 127 149
e 128 135
e 128 138
e 128 147
e 128 149
e 129 130
e 129 139
e 129 140
e 129 149
e 130 139
e 130 140
e 130 149
e 131 141
e 131 142
e 131 145
e 131 146
e 131 151
e 132 133
e 132 134
e 132 147
e 132 150
e 133 134
e 133 136
e 133 140
e 133 142
e 133 147
e 133 150
e 134 137
e 134 147
e 134 150
e 135 143
e 135 147
e 135 149
e 136 137
e 136 140
e 136 142
e 136 144
e 137 144
e 138 143
e 138 148
e 138 150
e 138 151
e 139 140
e 139 141
e 139 149
e 140 142
e 140 149
e 141 142
e 141 145
e 141 146
e 141 151
e 142 145
e 142 146
e 142 151
e 143 148
e 143 150
e 143 151
e 145 146
e 145 151
e 146 151
e 147 149
e 147 150
e 148 150
e 148 151
e 150 151
